sat
(:eliminated-applications 86
 :eliminated-vars         372
 :max-memory              20.44
 :memory                  18.81
 :nlsat-conflicts         7153
 :nlsat-decisions         19678
 :nlsat-propagations      125108
 :nlsat-stages            34235
 :num-allocs              4861735
 :rlimit-count            2330337
 :time                    1.10
 :total-time              1.11)
